30 30
20
3 3 27 21
3 4 14 0
3 5 17 0
3 6 23 24
3 7 14 4
3 8 0 22
3 9 0 0
3 10 27 0
3 11 27 10
3 13 0 9
3 14 20 16
3 16 24 0
3 19 14 11
3 25 17 5
4 3 20 13
4 4 20 0
4 6 26 24
4 8 23 16
4 9 20 4
11 30 3 0
% time elapsed: 8.67 s
% time elapsed: 8.67 s
%%%mzn-stat: initTime=0.000367
%%%mzn-stat: solveTime=8.57493
%%%mzn-stat: solutions=74
%%%mzn-stat: variables=41
%%%mzn-stat: propagators=25
%%%mzn-stat: propagations=6892951
%%%mzn-stat: nodes=1326728
%%%mzn-stat: failures=658683
%%%mzn-stat: restarts=705
%%%mzn-stat: peakDepth=62
%%%mzn-stat-end
